COMMENT: Africa-Subproblem of 666-city TSP (Groetschel)
14.55 28.06 32.38 31.38 33.39 34.02 34.05 35.48 35.43 36.47 22.56 36.22 36.48 34.44 32.54 32.07 31.12 31.16 29.58 30.03 24.05 19.37 15.36 13.11 13.38 15.2 9 11.36 18.06 14.4 13.28 11.51 16.46 12.39 10.23 9.31 8.3 6.18 5.19 6.41 5.33 6.08 6.29 12.22 13.31 12 11.51 12.07 6.27 6.27 0.2 3.45 3.52 4.22 0.23 -4.16 -4.18 0.04 -5.54 0.3 -3.23 -1.57 0.19 -1.17 2.01 -4.03 -6.1 -6.48 -8.48 -12.44 -11.4 -12.49 -15.25 -20.09 -17.5 -15.47 -19.49 -25.58 -15.57 -37.15 -22.59 -22.34 -26.38 -24.45 -25.45 -26.15 -29.12 -29.55 -33 -33.58 -33.55 -23.21 -18.55 -12.16 -20.1 -4.38
-23.31 -15.24 -16.54 -8 -7.35 -6.51 -4.57 -5.45 -0.43 3.03 5.3 6.37 10.11 10.46 13.11 20.04 29.54 32.18 32.33 31.15 32.53 37.14 32.32 30.13 25.21 38.53 38.5 43.09 -15.57 -17.26 -16.39 -15.35 -3.01 -8 -9.18 -13.43 -13.15 -10.47 -4.02 -1.35 -0.13 1.13 2.37 -1.31 2.07 8.3 13.1 15.03 3.24 7.27 6.44 8.47 11.31 18.35 9.27 15.17 15.18 18.16 22.25 25.12 29.22 30.04 32.25 36.49 45.2 39.4 39.11 39.17 13.14 15.47 27.28 28.13 28.17 28.36 31.03 35 34.52 32.35 -5.42 -12.3 14.31 17.06 15.1 25.55 28.1 28 26.07 30.56 27.55 25.4 18.22 43.4 47.31 49.17 57.3 55.27
2914.53 2914.53 2914.53 2914.53 2914.53 2914.53 2914.53 2914.53 2914.53 2914.53 2907.43 2907.43 2907.43 2907.43 2907.43 2880.89 2880.89 2880.89 2880.89 2880.89 2880.89 2880.89 2842.51 2842.51 2842.51 2842.51 2842.51 2842.51 2842.51 2842.51 2842.51 2842.51 2842.51 2842.51 2842.51 2842.51 2842.51 2842.51 2842.51 2842.51 2842.51 2842.51 2842.51 2842.51 2842.51 2842.51 2842.51 2842.51 2804.08 2804.08 2804.08 2804.08 2762.15 2762.15 2762.15 2762.15 2762.15 2762.15 2762.15 2762.15 2762.15 2762.15 2762.15 2762.15 2762.15 2762.15 2762.15 2762.15 2762.15 2762.15 2762.15 2762.15 2762.15 2717.04 2717.04 2717.04 2717.04 2689.15 2687.24 2687.24 2687.24 2687.24 2687.24 2687.24 2687.24 2687.24 2687.24 2687.24 2687.24 2687.24 2687.24 2687.24 2687.24 2687.24 2687.24 2687.24 2687.24 2687.24 2687.24 2687.24 2687.24 2687.24 2687.24 2687.24 2687.24 2687.24 2687.24 2687.24 2687.24 2687.24 2687.24 2687.24 2687.24 2628.47 2628.47 2628.47 2628.47 2628.47 2628.47 2628.47 2628.47 2628.47 2628.47 2628.47 2628.47 2628.47 2628.47 2628.47 2628.47 2628.47 2628.47 2628.47 2628.47 2628.47 2628.47 2628.47 2628.47 2628.47 2628.47 2628.47 2628.47 2628.47 2624.9 2614.64 2614.64 2614.64 2614.64 2614.64 2614.64 2614.64 2614.64 2614.64 2614.64 2614.64 2614.64 2614.64 2614.64 2614.64 2614.64 2603.04 2603.04 2599.61 2599.61 2599.61 2599.61 2599.61 2589.66 2589.66 2589.66 2589.66 2589.66 2589.66 2589.66 2589.66 2589.66 2589.66 2589.66 2569.54 2543.87 2543.87 2543.87 2543.87 2543.87 2543.87 2543.87 2532.35 2532.35 2532.35 2532.35 2532.35 2532.35 2532.35 2482.94 2482.94 2482.94 2482.94 2482.94 2482.94 2482.94 2482.94 2482.94 2482.94 2482.94 2482.94 2482.94 2482.94 2482.94 2482.94 2482.94 2482.94 2482.94 2482.94 2482.94 2482.94 2482.94 2482.94 2482.94 2482.94 2482.94 2482.94 2482.94 2482.94 2482.94 2482.94 2482.94 2482.94 2482.94 2482.94 2482.94 2482.94 2482.94 2482.94 2482.94 2482.94 2482.94 2482.94 2482.94 2482.94 2482.94 2482.94 2482.94 2482.94 2482.94 2482.94 2482.94 2482.94 2482.94 2482.94 2482.94 2482.94 2482.94 2482.94 2482.94 2482.94 2427.26 2427.26 2427.26 2427.26 2427.26 2427.26 2427.26 2427.26 2427.26 2427.26 2427.26 2427.26 2427.26 2427.26 2427.26 2427.26 2427.26 2427.26 2427.26 2427.26 2427.26 2427.26 2427.26 2427.26 2427.26 2427.26 2427.26 2427.26 2427.26 2427.26 2427.26 2427.26 2427.26 2427.26 2427.26 2427.26 2427.26 2427.26 2427.26 2427.26 2427.26 2427.26 2427.26 2427.26 2413.71 2413.71 2413.71 2413.71 2373.8 2373.8 2373.8 2373.8 2373.8 2373.8 2373.8 2373.8 2373.8 2373.8 2373.8 2373.8 2373.8 2373.8 2373.8 2373.8 2373.8 2373.8 2373.8 2373.8 2373.8 2373.8 2373.8 2373.8 2373.8 2373.8 2373.8 2373.8 2373.8 2373.8 2373.8 2373.8 2373.8 2373.8 2373.8 2373.8 2373.8 2373.8 2373.8 2373.8 2373.8 2373.8 2365.87 2365.87 2365.87 2365.87 2354.98 2322.34 2322.34 2322.34 2322.34 2322.34 2322.34 2322.34 2322.34 2322.34 2322.34 2322.34 2322.34 2322.34 2322.34 2322.34 2322.34 2322.34 2322.34 2322.34 2322.34 2322.34 2322.34 2322.34 2322.34 2309.74 2309.74 2288.17 2288.17 2288.17 2263.72 2263.72 2263.72 2263.72 2263.72 2262.33 2260.88 2260.88 2260.88 2260.88 2260.88 2260.88 2260.88 2260.88 2260.88 2260.88 2260.88 2260.88 2260.88 2260.88 2260.88 2260.88 2260.88 2260.88 2260.88 2260.88 2260.88 2260.88 2260.88 2260.88 2260.88 2260.88 2260.88 2260.88 2260.88 2260.88 2260.88 2260.88 2260.88 2260.88 2260.88 2260.88 2254.21 2254.21 2254.21 2254.21 2254.21 2254.21 2254.21 2254.21 2254.21 2254.21 2254.21 2254.21 2254.21 2254.21 2254.21 2254.21 2254.21 2254.21 2254.21 2254.21 2254.21 2254.21 2254.21 2254.21 2254.21 2254.21 2254.21 2254.21 2254.21 2254.21 2254.21 2254.21 2254.21 2254.21 2254.21 2254.21 2254.21 2254.21 2254.21 2254.21 2254.21 2254.21 2254.21 2254.21 2254.21 2254.21 2254.21 2254.21 2254.21 2254.21 2254.21 2254.21 2254.21 2254.21 2254.21 2254.21 2254.21 2254.21 2234.27 2234.27 2233.52 2232.94 2232.94 2218.71 2218.71 2218.71 2218.71 2216.61 2216.61 2216.61 2216.61 2216.61 2216.61 2216.61 2216.61 2216.61 2216.61 2216.61 2216.61 2216.61 2216.61 2216.61 2216.61 2216.61 2216.61 2216.61 2216.61 2200.4 2200.4 2200.4 2200.4 2200.4 2200.4 2200.4 2200.4 2200.4 2200.4 2200.4 2200.4 2200.4 2200.4 2200.4 2200.4 2200.4 2200.4 2200.4 2200.4 2200.4 2200.4 2200.4 2200.4 2200.4 2200.4 2200.4 2186.83 2186.83 2186.83 2186.83 2186.1 2186.1 2186.1 2159.49 2159.49 2159.49 2159.49 2159.49 2159.49 2159.49 2159.49 2159.49 2159.49 2159.49 2159.49 2159.49 2159.49 2159.49 2159.49 2159.49 2159.49 2159.49 2159.49 2159.49 2159.49 2159.49 2159.49 2159.49 2159.49 2159.49 2159.49 2159.49 2159.49 2155.19 2134.84 2134.84 2134.84 2134.17 2123.69 2123.69 2123.69 2123.69 2123.69 2123.69 2123.69 2123.69 2099.96 2099.96 2099.96 2099.96 2099.96 2099.96 2099.96 2099.96 2099.96 2099.96 2099.96 2099.96 2099.96 2099.96 2099.96 2099.96 2099.96 2099.96 2099.96 2098.18 2098.18 2098.18 2097.09 2097.09 2097.09 2097.09 2097.09 2088.75 2088.75 2088.75 2088.75 2088.75 2088.75 2086.01 2086.01 2072.29 2052.93 2052.93 2031.76 2031.76 2031.76 2031.76 2031.76 2031.76 2031.76 2031.76 2031.76 2031.76 2031.76 2031.76 2031.76 2031.76 2031.76 2031.76 2031.76 2014.27 2014.27 2001.75 2001.75 1959.42 1959.42 1959.42 1959.42 1959.42 1959.42 1959.42 1959.42 1959.42 1959.42 1959.42 1959.42 1959.42 1959.42 1959.42 1959.42 1959.42 1959.42 1959.42 1959.42 1959.42 1959.42 1959.42 1952.14 1952.14 1952.14 1952.14 1952.14 1952.14 1952.14 1952.14 1952.14 1952.14 1952.14 1952.14 1952.14 1938.57 1938.57 1938.57 1938.57 1875.06 1875.06 1875.06 1875.06 1875.06 1875.06 1875.06 1875.06 1875.06 1875.06 1875.06 1875.06 1875.06 1875.06 1875.06 1875.06 1875.06 1875.06 1875.06 1875.06 1875.06 1875.06 1875.06 1875.06 1875.06 1875.06 1875.06 1875.06 1875.06 1875.06 1875.06 1875.06 1875.06 1875.06 1875.06 1875.06 1875.06 1875.06 1875.06 1875.06 1870.21 1870.21 1869.29 1869.29 1869.29 1869.29 1869.29 1869.29 1869.29 1869.29 1846.26 1846.26 1846.26 1846.26 1846.26 1846.26 1846.26 1846.26 1846.26 1846.26 1846.26 1846.26 1846.26 1846.26 1846.26 1846.26 1846.26 1846.26 1846.26 1846.26 1846.26 1846.26 1846.26 1846.26 1846.26 1839.51 1839.51 1839.51 1839.51 1839.51 1839.51 1839.51 1830.43 1830.43 1830.43 1830.43 1830.43 1830.43 1830.43 1830.43 1830.43 1830.43 1830.43 1830.43 1830.43 1830.43 1830.43 1830.43 1829.29 1829.29 1829.29 1829.29 1829.29 1829.29 1829.29 1829.29 1829.28 1829.28 1779.65 1779.65 1779.65 1779.65 1779.65 1779.65 1779.65 1779.65 1779.65 1779.65 1779.65 1779.65 1770.99 1770.99 1770.99 1770.99 1770.99 1770.99 1770.99 1770.99 1770.99 1770.99 1770.99 1770.99 1770.99 1766.03 1766.03 1766.03 1766.03 1764.36 1764.36 1764.36 1764.36 1764.36 1759.39 1759.39 1759.39 1759.39 1731.97 1731.97 1731.97 1731.97 1731.97 1731.97 1731.97 1731.97 1731.97 1731.97 1731.97 1731.97 1731.97 1731.97 1731.97 1731.97 1731.63 1731.63 1731.63 1731.63 1731.63 1731.63 1731.63 1731.63 1731.63 1731.63 1731.63 1731.63 1719.01 1719.01 1719.01 1719.01 1719.01 1719.01 1719.01 1719.01 1691.44 1691.44 1691.44 1691.44 1691.44 1691.44 1691.44 1691.44 1691.44 1691.44 1691.44 1681.51 1681.51 1681.51 1681.51 1681.51 1681.51 1681.51 1681.51 1681.51 1679.57 1679.57 1676.35 1676.35 1676.35 1676.35 1676.35 1676.35 1676.35 1676.35 1676.35 1676.35 1676.35 1676.35 1676.35 1676.35 1676.35 1676.35 1676.35 1676.35 1673.97 1671.29 1671.29 1671.29 1671.29 1671.29 1671.27 1669.98 1669.98 1659.74 1659.74 1638.94 1638.94 1638.94 1638.94 1638.94 1638.94 1638.94 1638.94 1638.94 1638.94 1638.94 1638.94 1638.94 1638.94 1638.94 1638.94 1638.94 1638.94 1638.94 1638.94 1638.94 1638.94 1638.94 1638.94 1636.7 1636.7 1636.7 1636.7 1636.7 1636.7 1636.7 1636.7 1636.7 1636.7 1636.7 1636.7 1636.7 1636.7 1636.7 1636.7 1636.7 1636.7 1636.7 1636.7 1636.7 1636.7 1636.7 1636.7 1636.7 1636.7 1636.7 1636.7 1636.7 1636.7 1636.7 1636.7 1636.7 1636.7 1636.67 1636.67 1636.67 1636.67 1636.67 1636.67 1636.67 1636.67 1636.67 1636.67 1636.67 1635.53 1635.53 1635.53 1635.53 1635.53 1635.53 1635.53 1635.53 1631.86 1631.86 1628.4 1628.4 1623.61 1621.75 1621.75 1621.75 1621.75 1621.75 1621.75 1621.75 1621.75 1621.75 1621.75 1621.75 1621.75 1621.58 1621.58 1621.56 1621.56 1621.56 1610.64 1610.64 1610.64 1610.64 1610.64 1610.64 1590.54 1590.54 1590.54 1590.54 1590.54 1590.54 1590.54 1590.54 1590.54 1590.54 1590.54 1590.54 1590.54 1590.54 1590.54 1590.54 1590.54 1585.59 1585.59 1585.59 1585.59 1578.48 1578.48 1578.48 1578.48 1578.48 1578.48 1578.48 1578.48 1578.48 1578.48 1570.2 1570.2 1570.2 1570.2 1570.2 1570.2 1570.2 1570.2 1570.2 1570.2 1570.2 1570.2 1562.61 1562.61 1562.61 1562.61 1562.61 1562.61 1562.61 1562.61 1562.61 1562.61 1562.61 1562.61 1562.61 1562.61 1562.61 1562.61 1562.61 1562.61 1562.15 1562.15 1547.22 1547.22 1547.22 1547.22 1547.22 1547.22 1547.22 1547.22 1547.22 1547.22 1547.22 1547.22 1547.22 1547.22 1547.22 1546.75 1546.75 1546.75 1546.75 1546.75 1546.75 1546.75 1546.75 1546.75 1546.75 1546.22 1546.22 1546.22 1546.22 1546.22 1546.22 1546.22 1546.22 1546.22 1546.22 1546.22 1546.22 1541.03 1540.5 1540.5 1540.5 1540.5 1540.5 1540.5 1540.5 1540.5 1540.5 1540.5 1540.5 1540.5 1540.5 1540.5 1540.5 1540.5 1540.5 1540.5 1540.5 1540.5 1540.5 1540.5 1540.5 1540.5 1540.5 1540.5 1540.5 1540.5 1540.5 1540.5 1540.5 1540.5 1540.5 1540.5 1540.5 1540.5 1540.5 1540.5 1540.5 1540.5 1540.5 1540.5 1540.5 1540.5 1540.5 1540.5 1540.5 1540.5 1540.5 1540.5 1540.5 1540.5 1540.5 1540.5 1540.5 1540.5 1540.5 1540.5 1540.5 1540.5 1540.5 1540.5 1537.4 1537.4 1537.4 1537.4 1537.4 1537.4 1537.4 1537.4 1537.4 1537.4 1537.4 1537.4 1537.4 1537.4 1537.4 1537.4 1537.4 1537.23 1537.23 1537.23 1537.23 1537.23 1537.23 1537.23 1537.23 1537.23 1537.23 1537.23 1537.23 1537.23 1537.23 1530.31 1530.31 1530.31 1530.31 1530.31 1530.31 1530.31 1530.31 1530.31 1530.31 1530.31 1530.31 1530.31 1530.31 1530.31 1530.31 1530.31 1530.31 1530.31 1530.31 1530.31 1530.31 1530.31 1530.31 1530.31 1530.31 1530.31 1530.31 1530.31 1530.31 1530.31 1530.31 1530.31 1530.31 1530.31 1530.31 1530.31 1530.31 1530.31 1530.31 1530.31 1530.31 1530.31 1530.31 1530.31 1530.31 1530.31 1530.31 1530.31 1530.31 1530.31 1530.31 1530.31 1530.31 1530.31 1530.31 1530.31 1530.31 1530.31 1530.31 1530.31 1530.31 1530.31 1530.31 1530.31 1530.31 1530.31 1530.31 1530.31 1530.31 1530.31 1530.31 1530.31 1530.31 1530.31 1530.31 1530.31 1530.31 1530.31 1530.31 1530.31 1530.31 1530.31 1530.31 1530.31 1530.31 1530.31 1530.31 1530.31 1530.31 1530.31 1530.31 1530.31 1530.31 1530.31 1520.08 1520.08 1520.08 1520.08 1520.08 1520.08 1520.08 1520.08 1520.08 1520.08 1520.08 1520.08 1520.08 1520.08 1520.08 1520.08 1520.08 1520.08 1520.08 1520.08 1520.08 1520.08 1520.08 1520.08 1520.08 1520.08 1520.08 1520.08 1520.08 1520.08 1520.08 1520.08 1520.08 1520.08 1520.08 1520.08 1520.08 1520.08 1520.08 1520.08 1520.08 1520.08 1520.08 1520.08 1520.08 1520.08 1520.08 1520.08 1520.08 1520.08 1520.08 1520.08 1520.08 1520.08 1520.08 1520.08 1520.08 1520.08 1520.08 1520.08 1520.08 1520.08 1520.08 1520.08 1520.08 1520.08 1520.08 1520.08 1520.08 1520.08 1520.08 1520.08 1520.08 1520.08 1520.08 1520.08 1520.08 1520.08 1520.08 1520.08 1520.08 1520.08 1520.08 1520.08 1520.08 1520.08 1520.08 1520.08 1520.08 1520.08 1520.08 1520.08 1520.08 1520.08 1520.08 1520.08 1520.08 1520.08 1520.08 1520.08 1520.08 1520.08 1520.08 1520.08 1520.08 1520.08 1520.08 1520.08 1520.08 1520.08 1520.08 1520.08 1520.08 1520.08 1520.08 1520.08 1520.08 1520.08 1520.08 1520.08 1520.08 1520.08 1520.08 1520.08 1520.08 1520.08 1520.08 1520.08 1520.08 1520.08 1520.08 1520.08 1520.08 1520.08 1520.08 1520.08 1520.08 1520.08 1520.08 1520.08 1520.08 1520.08 1520.08 1520.08 1520.08 1520.08 1520.08 1520.08 1520.08 1520.08 1520.08 1520.08 1520.08 1520.08 1520.08 1520.08 1520.08 1520.08 1520.08 1520.08 1520.08 1520.08 1520.08 1520.08 1520.08 1520.08 1520.08 1520.08 1520.08 1520.08 1520.08 1520.08 1520.08 1520.08 1520.08 1520.08 1520.08 1520.08 1520.08 1520.08 1520.08 1520.08 1520.08 1520.08 1520.08 1520.08 1520.08 1520.08 1520.08 1520.08 1520.08 1520.08 1520.08 1520.08 1520.08 1520.08 1520.08 1520.08 1520.08 1520.08 1520.08 1520.08 1520.08 1520.08 1520.08 1520.08 1520.08 1520.08 1520.08 1520.08 1520.08 1520.08 1520.08 1520.08 1520.08 1520.08 1520.08 1520.08 1520.08 1520.08 1520.08 1520.08 1520.08 1520.08 1520.08 1520.08 1520.08 1520.08 1520.08 1520.08 1520.08 1520.08 1520.08 1520.08 1520.08 1520.08 1520.08 1520.08 1520.08 1520.08 1520.08 1520.08 1520.08 1520.08 1520.08 1520.08 1520.08 1520.08 1520.08 1520.08 1520.08 1520.08 1520.08 1520.08 1520.08 1520.08 1520.08 1520.08 1520.08 1520.08 1520.08 1520.08 1520.08 1520.08 1520.08 1520.08 1520.08 1520.08 1520.08 1520.08 1520.08 1520.08 1520.08 1520.08 1520.08 1520.08 1520.08 1520.08 1520.08 1520.08 1520.08 1520.08 1520.08 1520.08 1520.08 1520.08 1520.08 1520.08 1520.08 1520.08 1520.08 1520.08 1520.08 1520.08 1520.08 1520.08 1520.08 1520.08 1520.08 1520.08 1520.08 1520.08 1520.08 1520.08 1520.08 1520.08 1520.08 1520.08 1520.08 1520.08 1520.08 1520.08 1520.08 1520.08 1520.08 1520.08 1520.08 1520.08 1520.08 1520.08 1520.08 1520.08 1520.08 1520.08 1520.08 1520.08 1520.08 1520.08 1520.08 1520.08 1520.08 1520.08 1520.08 1520.08 1520.08 1520.08 1520.08 1520.08 1520.08 1520.08 1520.08 1520.08 1520.08 1520.08 1520.08 1520.08 1520.08 1520.08 1520.08 1520.08 1520.08 1520.08 1520.08 1520.08 1520.08 1520.08 1520.08 1520.08 1520.08 1520.08 1520.08 1520.08 1520.08 1520.08 1520.08 1520.08 1520.08 1520.08 1520.08 1520.08 1520.08 1520.08 1520.08 1520.08 1520.08 1520.08 1520.08 1520.08 1520.08 1520.08 1520.08 1520.08 1520.08 1520.08 1520.08 1520.08 1520.08 1520.08 1520.08 1520.08 1520.08 1520.08 1520.08 1520.08 1520.08 1520.08 1520.08 1520.08 1520.08 1520.08 1520.08 1520.08 1520.08 1520.08 1520.08 1520.08 1520.08 1520.08 1520.08 1520.08 1520.08 1520.08 1520.08 1520.08 1520.08 1520.08 1520.08 1520.08 1520.08 1520.08 1520.08 1520.08 1520.08 1520.08 1520.08 1520.08 1520.08 1520.08 1520.08 1520.08 1520.08 1520.08 1520.08 1520.08 1520.08 1520.08 1520.08 1520.08 1520.08 1520.08 1520.08 1520.08 1520.08 1520.08 1520.08 1520.08 1520.08 1520.08 1520.08 1520.08 1520.08 1520.08 1520.08 1520.08 1520.08 1520.08 1520.08 1520.08 1520.08 1520.08 1520.08 1520.08 1520.08 1520.08 1520.08 1520.08 1520.08 1520.08 1520.08 1520.08 1520.08 1520.08 1520.08 1520.08 1520.08 1520.08 1520.08 1520.08 1520.08 1520.08 1520.08 1520.08 1520.08 1520.08 1520.08 1520.08 1520.08 1520.08 1520.08 1520.08 1520.08 1520.08 1520.08 1520.08 1520.08 1520.08 1520.08 1520.08 1520.08 1520.08 1520.08 1520.08 1520.08 1520.08 1520.08 1520.08 1520.08 1520.08 1520.08 1520.08 1520.08 1520.08 1520.08 1520.08 1520.08 1520.08 1520.08 1520.08 1520.08 1520.08 1520.08 1520.08 1520.08 1520.08 1520.08 1520.08 1520.08 1520.08 1520.08 1520.08 1520.08 1520.08 1520.08 1520.08 1520.08 1520.08 1520.08 1520.08 1520.08 1520.08 1520.08 1520.08 1520.08 1520.08 1520.08 1520.08 1520.08 1520.08 1520.08 1520.08 1520.08 1520.08 1520.08 1520.08 1520.08 1520.08 1520.08 1520.08 1520.08 1520.08 1520.08 1520.08 1520.08 1520.08 1520.08 1520.08 1520.08 1520.08 1520.08 1520.08 1520.08 1520.08 1520.08 1520.08 1520.08 1520.08 1520.08 1520.08 1520.08 1520.08 1520.08 1520.08 1520.08 1520.08 1520.08 1520.08 1520.08 1520.08 1520.08 1520.08 1520.08 1520.08 1520.08 1520.08 1520.08 1520.08 1520.08 1520.08 1520.08 1520.08 1520.08 1520.08 1520.08 1520.08 1520.08 1520.08 1520.08 1520.08 1520.08 1520.08 1520.08 1520.08 1520.08 1520.08 1520.08 1520.08 1520.08 1520.08 1520.08 1520.08 1520.08 1520.08 1520.08 1520.08 1520.08 1520.08 1520.08 1520.08 1520.08 1520.08 1520.08 1520.08 1520.08 1520.08 1520.08 1520.08 1520.08 1520.08 1520.08 1520.08 1520.08 1520.08 1520.08 1520.08 1520.08 1520.08 1520.08 1520.08 1520.08 1520.08 1520.08 1520.08 1520.08 1520.08 1520.08 1520.08 1520.08 1520.08 1520.08 1520.08 1520.08 1520.08 1520.08 1520.08 1520.08 1520.08 1520.08 1520.08 1520.08 1520.08 1520.08 1520.08 1520.08 1520.08 1520.08 1520.08 1520.08 1520.08 1520.08 1520.08 1520.08 1520.08 1520.08 1520.08 1520.08 1520.08 1520.08 1520.08 1520.08 1520.08
14 11 54 58 33 31 29 38 39 51 55 53 1 30 35 34 32 4 8 45 46 49 36 2 10 7 13 47 27 64 23 62 86 89 71 70 66 65 68 61 63 24 28 77 96 94 80 79 42 41 50 17 22 21 92 93 95 67 6 5 3 40 43 69 82 84 57 52 48 12 15 9 88 90 85 75 78 73 59 44 37 56 74 87 91 83 81 76 72 60 25 26 16 18 20 19
29 2 3 4 5 6 7 8 9 10 12 13 14 15 16 17 20 18 19 21 25 24 23 22 26 28 27 65 96 94 95 93 92 77 76 68 67 66 64 63 62 61 60 59 71 72 73 75 74 84 86 85 78 88 87 89 90 91 83 82 81 80 79 70 69 57 56 58 54 48 47 46 50 52 53 55 51 49 43 42 41 40 39 44 45 11 33 34 35 38 37 36 32 31 30 1
